# basic input

units           real
boundary        p p p
neighbor        2.0 bin
neigh_modify    every 1 delay 0 check yes

atom_style      full
bond_style      harmonic
angle_style     harmonic
dihedral_style  opls
improper_style  cvff

pair_style      lj/cut/coul/long 12 12
pair_modify     mix geometric
kspace_style    pppm 1e-5
special_bonds   lj/coul 0.0 0.0 0.5

read_data       data.lmp

fix SHAKE all   shake 0.0001 20 0 b 5 6 7

velocity        all create 298 298 dist gaussian

thermo_style custom step cpu etotal ke pe evdwl ecoul elong temp press vol density
thermo 1000

timestep        1
fix 8 all       npt temp 298 298 200 iso 1 1 1000 tchain 3 pchain 3 mtk yes
restart         10000 IL.restart1 IL.restart2
dump d1 all     custom 10000 traj.lmp element xu yu zu
dump_modify d1  element C C C C C C C F H H H H N N N  
dump_modify d1  sort id
run             400000
undump d1
unfix 8

