# basic input

units           real
boundary        p p p
neighbor        2.0 bin
neigh_modify    every 1 delay 0 check yes

atom_style      full
bond_style      harmonic
angle_style     harmonic
dihedral_style  opls
improper_style  cvff

pair_style hybrid/overlay lj/cut/coul/long 12 12 coul/long/cs 12.0 thole 2.6 12.0
pair_modify     mix geometric
kspace_style    pppm 1e-5
special_bonds   lj/coul 0.0 0.0 0.5

read_data pdata.lmp extra/special/per/atom 3 
include pair-drude.lmp 

group ATOMS type 1 2 3 4 5 6 7 8 9 10 11
group CORES type 2 3 4 6 8 9 10 11
group DRUDES type 12 13 14 15 16 17 18 19

fix DRUDE all drude N C C C N C N C C C C D D D D D D D D


fix SHAKE ATOMS shake 0.0001 20 0 b 1 5


velocity        ATOMS create 300 300 dist gaussian
velocity        DRUDES create 1 1 dist gaussian

comm_modify vel yes 

compute TDRUDE all temp/drude 

thermo_style custom step cpu etotal ke pe evdwl ecoul elong temp c_TDRUDE[1] c_TDRUDE[2] press vol density 
thermo 1000

timestep        1
fix 8 all       npt temp 298 298 200 iso 1 1 1000 tchain 3 pchain 3 mtk yes
restart         10000 IL.restart1 IL.restart2
 
 
dump d1 all     custom 10000 traj.lmp element xu yu zu
dump_modify d1 element H C N C H C H O O C C D D D D D D D D
dump_modify d1  sort id
run             400000
undump d1
unfix 8

